p tdp 20 100
1 2
1 5
1 6
1 9
1 10
1 11
1 12
1 13
1 14
1 15
1 20
2 3
2 5
2 6
2 10
2 12
2 13
2 14
2 16
3 4
3 5
3 8
3 9
3 11
3 13
3 14
4 5
4 6
4 7
4 12
4 14
4 16
4 19
4 20
5 10
5 13
5 14
5 16
5 19
5 20
6 12
6 13
6 14
6 17
6 18
6 19
7 8
7 9
7 10
7 11
7 13
7 14
7 15
7 17
7 19
8 9
8 11
8 12
8 13
8 14
8 16
8 17
8 18
8 19
9 11
9 12
9 14
9 15
9 16
9 17
9 18
10 11
10 12
10 13
10 16
10 18
11 13
11 14
11 17
11 18
11 20
12 17
12 18
13 14
13 15
13 16
13 18
13 20
14 15
14 17
14 19
15 17
15 18
15 20
16 17
16 18
16 19
17 19
17 20
18 19
